&CONTROL
  calculation = 'bands'
  prefix = 'GaAs'
    pseudo_dir = 'input',
    restart_mode = 'from_scratch',
    disk_io = 'low'
    wf_collect = .TRUE.,
/

&SYSTEM
    a                         =  2.24400e+01
    degauss                   =  2.00000e-03
    ecutrho                   =  6.50000e+02
    ecutwfc                   =  7.50000e+01
    ibrav                     = 2
    lspinorb                  = .TRUE.
    nat                       = 128
    noncolin                  = .TRUE.
    nosym                     = .TRUE.
    ntyp                      = 2
    occupations               = "smearing"
    smearing                  = "gaussian"
    starting_magnetization(2) =  0.00000e+00
    nbnd = 144
/

&ELECTRONS
  conv_thr = 1e-08
  electron_maxstep = 80
  mixing_beta = 0.3
/

ATOMIC_SPECIES
  As 74.9216 As.rel-pz-n-rrkjus_psl.0.2.UPF
  Ga 69.72 Ga.rel-pz-dn-rrkjus_psl.0.2.UPF


ATOMIC_POSITIONS {crystal}
Ga      0.000000   0.000000   0.000000
As      0.062500   0.062500   0.062500
Ga      0.000000   0.000000   0.250000
As      0.062500   0.062500   0.312500
Ga      0.000000   0.000000   0.500000
As      0.062500   0.062500   0.562500
Ga      0.000000   0.000000   0.750000
As      0.062500   0.062500   0.812500
Ga      0.000000   0.250000   0.000000
As      0.062500   0.312500   0.062500
Ga      0.000000   0.250000   0.250000
As      0.062500   0.312500   0.312500
Ga      0.000000   0.250000   0.500000
As      0.062500   0.312500   0.562500
Ga     -0.000000   0.250000   0.750000
As      0.062500   0.312500   0.812500
Ga      0.000000   0.500000   0.000000
As      0.062500   0.562500   0.062500
Ga      0.000000   0.500000   0.250000
As      0.062500   0.562500   0.312500
Ga      0.000000   0.500000   0.500000
As      0.062500   0.562500   0.562500
Ga      0.000000   0.500000   0.750000
As      0.062500   0.562500   0.812500
Ga      0.000000   0.750000   0.000000
As      0.062500   0.812500   0.062500
Ga     -0.000000   0.750000   0.250000
As      0.062500   0.812500   0.312500
Ga      0.000000   0.750000   0.500000
As      0.062500   0.812500   0.562500
Ga      0.000000   0.750000   0.750000
As      0.062500   0.812500   0.812500
Ga      0.250000   0.000000   0.000000
As      0.312500   0.062500   0.062500
Ga      0.250000   0.000000   0.250000
As      0.312500   0.062500   0.312500
Ga      0.250000   0.000000   0.500000
As      0.312500   0.062500   0.562500
Ga      0.250000  -0.000000   0.750000
As      0.312500   0.062500   0.812500
Ga      0.250000   0.250000   0.000000
As      0.312500   0.312500   0.062500
Ga      0.250000   0.250000   0.250000
As      0.312500   0.312500   0.312500
Ga      0.250000   0.250000   0.500000
As      0.312500   0.312500   0.562500
Ga      0.250000   0.250000   0.750000
As      0.312500   0.312500   0.812500
Ga      0.250000   0.500000   0.000000
As      0.312500   0.562500   0.062500
Ga      0.250000   0.500000   0.250000
As      0.312500   0.562500   0.312500
Ga      0.250000   0.500000   0.500000
As      0.312500   0.562500   0.562500
Ga      0.250000   0.500000   0.750000
As      0.312500   0.562500   0.812500
Ga      0.250000   0.750000   0.000000
As      0.312500   0.812500   0.062500
Ga      0.250000   0.750000   0.250000
As      0.312500   0.812500   0.312500
Ga      0.250000   0.750000   0.500000
As      0.312500   0.812500   0.562500
Ga      0.250000   0.750000   0.750000
As      0.312500   0.812500   0.812500
Ga      0.500000   0.000000   0.000000
As      0.562500   0.062500   0.062500
Ga      0.500000   0.000000   0.250000
As      0.562500   0.062500   0.312500
Ga      0.500000   0.000000   0.500000
As      0.562500   0.062500   0.562500
Ga      0.500000   0.000000   0.750000
As      0.562500   0.062500   0.812500
Ga      0.500000   0.250000   0.000000
As      0.562500   0.312500   0.062500
Ga      0.500000   0.250000   0.250000
As      0.562500   0.312500   0.312500
Ga      0.500000   0.250000   0.500000
As      0.562500   0.312500   0.562500
Ga      0.500000   0.250000   0.750000
As      0.562500   0.312500   0.812500
Ga      0.500000   0.500000   0.000000
As      0.562500   0.562500   0.062500
Ga      0.500000   0.500000   0.250000
As      0.562500   0.562500   0.312500
Ga      0.500000   0.500000   0.500000
As      0.562500   0.562500   0.562500
Ga      0.500000   0.500000   0.750000
As      0.562500   0.562500   0.812500
Ga      0.500000   0.750000   0.000000
As      0.562500   0.812500   0.062500
Ga      0.500000   0.750000   0.250000
As      0.562500   0.812500   0.312500
Ga      0.500000   0.750000   0.500000
As      0.562500   0.812500   0.562500
Ga      0.500000   0.750000   0.750000
As      0.562500   0.812500   0.812500
Ga      0.750000   0.000000   0.000000
As      0.812500   0.062500   0.062500
Ga      0.750000  -0.000000   0.250000
As      0.812500   0.062500   0.312500
Ga      0.750000   0.000000   0.500000
As      0.812500   0.062500   0.562500
Ga      0.750000   0.000000   0.750000
As      0.812500   0.062500   0.812500
Ga      0.750000   0.250000   0.000000
As      0.812500   0.312500   0.062500
Ga      0.750000   0.250000   0.250000
As      0.812500   0.312500   0.312500
Ga      0.750000   0.250000   0.500000
As      0.812500   0.312500   0.562500
Ga      0.750000   0.250000   0.750000
As      0.812500   0.312500   0.812500
Ga      0.750000   0.500000   0.000000
As      0.812500   0.562500   0.062500
Ga      0.750000   0.500000   0.250000
As      0.812500   0.562500   0.312500
Ga      0.750000   0.500000   0.500000
As      0.812500   0.562500   0.562500
Ga      0.750000   0.500000   0.750000
As      0.812500   0.562500   0.812500
Ga      0.750000   0.750000   0.000000
As      0.812500   0.812500   0.062500
Ga      0.750000   0.750000   0.250000
As      0.812500   0.812500   0.312500
Ga      0.750000   0.750000   0.500000
As      0.812500   0.812500   0.562500
Ga      0.750000   0.750000   0.750000
As      0.812500   0.812500   0.812500


K_POINTS crystal
