&CONTROL
  calculation = 'scf'
  prefix = 'GaAs'
    pseudo_dir = 'input',
    restart_mode = 'from_scratch',
    disk_io = 'low'
    wf_collect = .TRUE.,
/

&SYSTEM
    a                         =  1.12200e+01
    degauss                   =  2.00000e-03
    ecutrho                   =  6.50000e+02
    ecutwfc                   =  7.50000e+01
    ibrav                     = 2
    lspinorb                  = .TRUE.
    nat                       = 16
    noncolin                  = .TRUE.
    nosym                     = .TRUE.
    ntyp                      = 2
    occupations               = "smearing"
    smearing                  = "gaussian"
    starting_magnetization(2) =  0.00000e+00
/

&ELECTRONS
  conv_thr = 1e-08
  electron_maxstep = 80
  mixing_beta = 0.3
/

ATOMIC_SPECIES
  As 74.9216 As.rel-pz-n-rrkjus_psl.0.2.UPF
  Ga 69.72 Ga.rel-pz-dn-rrkjus_psl.0.2.UPF

K_POINTS {automatic}
 2  2  2  0 0 0


ATOMIC_POSITIONS {alat}
Ga      0.000000   0.000000   0.000000
As     -0.375000   0.375000   0.375000
Ga     -0.250000   0.250000   0.000000
As     -0.625000   0.625000   0.375000
Ga      0.000000   0.250000   0.250000
As     -0.375000   0.625000   0.625000
Ga     -0.250000   0.500000   0.250000
As     -0.625000   0.875000   0.625000
Ga     -0.250000   0.000000   0.250000
As     -0.625000   0.375000   0.625000
Ga     -0.500000   0.250000   0.250000
As     -0.875000   0.625000   0.625000
Ga     -0.250000   0.250000   0.500000
As     -0.625000   0.625000   0.875000
Ga     -0.500000   0.500000   0.500000
As     -0.875000   0.875000   0.875000

