&CONTROL
  calculation = 'vc-relax'
  prefix = 'GaBiAs'
  outdir      = './',
  pseudo_dir  = './',
  disk_io = 'none'
/

&SYSTEM
  degauss = 0.002
  ecutrho = 800
  ecutwfc = 80
  ibrav = 2
  celldm(1) = 42.405451184
  lspinorb = .TRUE.
  nat = 128
  noncolin = .TRUE.
  ntyp = 3
  occupations = 'smearing'
  smearing = 'gaussian'
  starting_magnetization(1) = 0.0000e+00
  nosym = .true.
/

&ELECTRONS
  conv_thr = 1e-08
  electron_maxstep = 80
  mixing_beta = 0.3
/
&ions
	ion_dynamics = 'bfgs'
/

&cell
    cell_dofree='all'
    cell_dynamics = 'bfgs'
/

ATOMIC_SPECIES
  As 74.9216 As.rel-pz-n-rrkjus_psl.0.2.UPF
  Ga 69.72 Ga.rel-pz-dn-rrkjus_psl.0.2.UPF
  Bi 208.9804 Bi.rel-pz-dn-rrkjus_psl.1.0.0.UPF

K_POINTS {automatic}
 2  2  2  0 0 0


ATOMIC_POSITIONS crystal
Ga 0.000000 0.000000 0.000000
As 0.062500 0.062500 0.062500
Ga 0.000000 0.000000 0.250000
As 0.062500 0.062500 0.312500
Ga 0.000000 0.000000 0.500000
As 0.062500 0.062500 0.562500
Ga 0.000000 0.000000 0.750000
As 0.062500 0.062500 0.812500
Ga 0.000000 0.250000 0.000000
As 0.062500 0.312500 0.062500
Ga 0.000000 0.250000 0.250000
As 0.062500 0.312500 0.312500
Ga 0.000000 0.250000 0.500000
As 0.062500 0.312500 0.562500
Ga 0.000000 0.250000 0.750000
As 0.062500 0.312500 0.812500
Ga 0.000000 0.500000 0.000000
As 0.062500 0.562500 0.062500
Ga 0.000000 0.500000 0.250000
As 0.062500 0.562500 0.312500
Ga 0.000000 0.500000 0.500000
As 0.062500 0.562500 0.562500
Ga 0.000000 0.500000 0.750000
As 0.062500 0.562500 0.812500
Ga 0.000000 0.750000 0.000000
As 0.062500 0.812500 0.062500
Ga 0.000000 0.750000 0.250000
As 0.062500 0.812500 0.312500
Ga 0.000000 0.750000 0.500000
As 0.062500 0.812500 0.562500
Ga 0.000000 0.750000 0.750000
As 0.062500 0.812500 0.812500
Ga 0.250000 0.000000 0.000000
As 0.312500 0.062500 0.062500
Ga 0.250000 0.000000 0.250000
As 0.312500 0.062500 0.312500
Ga 0.250000 0.000000 0.500000
As 0.312500 0.062500 0.562500
Ga 0.250000 0.000000 0.750000
As 0.312500 0.062500 0.812500
Ga 0.250000 0.250000 0.000000
Bi 0.312500 0.312500 0.062500
Ga 0.250000 0.250000 0.250000
As 0.312500 0.312500 0.312500
Ga 0.250000 0.250000 0.500000
As 0.312500 0.312500 0.562500
Ga 0.250000 0.250000 0.750000
As 0.312500 0.312500 0.812500
Ga 0.250000 0.500000 0.000000
As 0.312500 0.562500 0.062500
Ga 0.250000 0.500000 0.250000
As 0.312500 0.562500 0.312500
Ga 0.250000 0.500000 0.500000
As 0.312500 0.562500 0.562500
Ga 0.250000 0.500000 0.750000
As 0.312500 0.562500 0.812500
Ga 0.250000 0.750000 0.000000
As 0.312500 0.812500 0.062500
Ga 0.250000 0.750000 0.250000
As 0.312500 0.812500 0.312500
Ga 0.250000 0.750000 0.500000
As 0.312500 0.812500 0.562500
Ga 0.250000 0.750000 0.750000
As 0.312500 0.812500 0.812500
Ga 0.500000 0.000000 0.000000
As 0.562500 0.062500 0.062500
Ga 0.500000 0.000000 0.250000
As 0.562500 0.062500 0.312500
Ga 0.500000 0.000000 0.500000
As 0.562500 0.062500 0.562500
Ga 0.500000 0.000000 0.750000
As 0.562500 0.062500 0.812500
Ga 0.500000 0.250000 0.000000
As 0.562500 0.312500 0.062500
Ga 0.500000 0.250000 0.250000
As 0.562500 0.312500 0.312500
Ga 0.500000 0.250000 0.500000
As 0.562500 0.312500 0.562500
Ga 0.500000 0.250000 0.750000
As 0.562500 0.312500 0.812500
Ga 0.500000 0.500000 0.000000
Bi 0.562500 0.562500 0.062500
Ga 0.500000 0.500000 0.250000
As 0.562500 0.562500 0.312500
Ga 0.500000 0.500000 0.500000
As 0.562500 0.562500 0.562500
Ga 0.500000 0.500000 0.750000
As 0.562500 0.562500 0.812500
Ga 0.500000 0.750000 0.000000
As 0.562500 0.812500 0.062500
Ga 0.500000 0.750000 0.250000
As 0.562500 0.812500 0.312500
Ga 0.500000 0.750000 0.500000
As 0.562500 0.812500 0.562500
Ga 0.500000 0.750000 0.750000
As 0.562500 0.812500 0.812500
Ga 0.750000 0.000000 0.000000
As 0.812500 0.062500 0.062500
Ga 0.750000 0.000000 0.250000
As 0.812500 0.062500 0.312500
Ga 0.750000 0.000000 0.500000
As 0.812500 0.062500 0.562500
Ga 0.750000 0.000000 0.750000
As 0.812500 0.062500 0.812500
Ga 0.750000 0.250000 0.000000
As 0.812500 0.312500 0.062500
Ga 0.750000 0.250000 0.250000
As 0.812500 0.312500 0.312500
Ga 0.750000 0.250000 0.500000
As 0.812500 0.312500 0.562500
Ga 0.750000 0.250000 0.750000
As 0.812500 0.312500 0.812500
Ga 0.750000 0.500000 0.000000
As 0.812500 0.562500 0.062500
Ga 0.750000 0.500000 0.250000
As 0.812500 0.562500 0.312500
Ga 0.750000 0.500000 0.500000
As 0.812500 0.562500 0.562500
Ga 0.750000 0.500000 0.750000
As 0.812500 0.562500 0.812500
Ga 0.750000 0.750000 0.000000
Bi 0.812500 0.812500 0.062500
Ga 0.750000 0.750000 0.250000
As 0.812500 0.812500 0.312500
Ga 0.750000 0.750000 0.500000
As 0.812500 0.812500 0.562500
Ga 0.750000 0.750000 0.750000
As 0.812500 0.812500 0.812500
