&CONTROL
  calculation = 'scf'
  prefix = 'GaAs'
  outdir      = '../output/',
  pseudo_dir  = '../pseudopotential/',
/

&SYSTEM
  degauss = 0.002
  ecutrho = 650
  ecutwfc = 75
  ibrav = 2
  celldm(1) = 10.601362796
  lspinorb = .TRUE.
  nat = 2
  noncolin = .TRUE.
  ntyp = 2
  occupations = 'smearing'
  smearing = 'gaussian'
  starting_magnetization(1) = 0.0000e+00
  nosym = .true.
/

&ELECTRONS
  conv_thr = 1e-08
  electron_maxstep = 80
  mixing_beta = 0.3
/

ATOMIC_SPECIES
  As 74.9216 As.rel-pz-n-rrkjus_psl.0.2.UPF
  Ga 69.72 Ga.rel-pz-dn-rrkjus_psl.0.2.UPF

K_POINTS {automatic}
  6 6 6 0 0 0


ATOMIC_POSITIONS crystal
 Ga 0.0   0.0   0.0
 As 0.25  0.25  0.25
