&CONTROL
  calculation = 'bands'
  prefix      = 'GaAs'
  outdir      = '../output/',
  pseudo_dir  = '../pseudopotential/',
/

&SYSTEM
  degauss = 0.002
  ecutrho = 400
  ecutwfc = 50
  ibrav = 2
  celldm(1) = 10.8652
  lspinorb = .TRUE.
  nat = 2
  noncolin = .TRUE.
  ntyp = 2
  occupations = 'smearing'
  nbnd = 26
  starting_magnetization(1) = 0.0000e+00
  nosym = .true.
/

&ELECTRONS
  conv_thr = 1e-08
  electron_maxstep = 80
  mixing_beta = 0.3
/

ATOMIC_SPECIES
  As 74.9216 As.rel-pbe-n-rrkjus_psl.0.2.UPF
  Ga 69.72 Ga.rel-pbe-dn-rrkjus_psl.0.2.UPF
K_POINTS {crystal_b}
  5
  0.500 0.500 0.500   20 ! L
  0.000 0.000 0.000   20 ! G
  0.500 0.000 0.500   20 ! X
  0.375 0.375 0.750   20 ! K
  0.000 0.000 0.000   20 ! G

ATOMIC_POSITIONS (alat)
 Ga 0.0   0.0   0.0
 As 0.25  0.25  0.25
