&CONTROL
  calculation = 'bands'
  prefix = 'GaBiAs'
    pseudo_dir = 'input',
    restart_mode = 'from_scratch',
    disk_io = 'low'
    wf_collect = .TRUE.,
/

&SYSTEM
    celldm(1) = 42.405451184
    degauss                   =  2.00000e-03
  ecutrho = 800
  ecutwfc = 80
    ibrav                     = 2
    lspinorb                  = .TRUE.
    nat                       = 128
    noncolin                  = .TRUE.
    nosym                     = .TRUE.
    ntyp                      = 3
    occupations               = "smearing"
    smearing                  = "gaussian"
    starting_magnetization(2) =  0.00000e+00
    nbnd = 1664
/

&ELECTRONS
  conv_thr = 1e-08
  electron_maxstep = 80
  mixing_beta = 0.3
/

ATOMIC_SPECIES
  As 74.9216 As.rel-pz-n-rrkjus_psl.0.2.UPF
  Ga 69.72 Ga.rel-pz-dn-rrkjus_psl.0.2.UPF
  Bi 208.9804 Bi.rel-pz-dn-rrkjus_psl.1.0.0.UPF


ATOMIC_POSITIONS {crystal}
Ga      0.000000   0.000000   0.000000
As      0.062500   0.062500   0.062500
Ga      0.000000   0.000000   0.250000
As      0.062500   0.062500   0.312500
Ga      0.000000   0.000000   0.500000
As      0.062500   0.062500   0.562500
Ga      0.000000   0.000000   0.750000
As      0.062500   0.062500   0.812500
Ga      0.000000   0.250000   0.000000
As      0.062500   0.312500   0.062500
Ga      0.000000   0.250000   0.250000
As      0.062500   0.312500   0.312500
Ga      0.000000   0.250000   0.500000
As      0.062500   0.312500   0.562500
Ga     -0.000000   0.250000   0.750000
As      0.062500   0.312500   0.812500
Ga      0.000000   0.500000   0.000000
As      0.062500   0.562500   0.062500
Ga      0.000000   0.500000   0.250000
As      0.062500   0.562500   0.312500
Ga      0.000000   0.500000   0.500000
As      0.062500   0.562500   0.562500
Ga      0.000000   0.500000   0.750000
As      0.062500   0.562500   0.812500
Ga      0.000000   0.750000   0.000000
As      0.062500   0.812500   0.062500
Ga     -0.000000   0.750000   0.250000
As      0.062500   0.812500   0.312500
Ga      0.000000   0.750000   0.500000
As      0.062500   0.812500   0.562500
Ga      0.000000   0.750000   0.750000
As      0.062500   0.812500   0.812500
Ga      0.250000   0.000000   0.000000
As      0.312500   0.062500   0.062500
Ga      0.250000   0.000000   0.250000
As      0.312500   0.062500   0.312500
Ga      0.250000   0.000000   0.500000
As      0.312500   0.062500   0.562500
Ga      0.250000  -0.000000   0.750000
As      0.312500   0.062500   0.812500
Ga      0.250000   0.250000   0.000000
As      0.312500   0.312500   0.062500
Ga      0.250000   0.250000   0.250000
As      0.312500   0.312500   0.312500
Ga      0.250000   0.250000   0.500000
As      0.312500   0.312500   0.562500
Ga      0.250000   0.250000   0.750000
As      0.312500   0.312500   0.812500
Ga      0.250000   0.500000   0.000000
As      0.312500   0.562500   0.062500
Ga      0.250000   0.500000   0.250000
As      0.312500   0.562500   0.312500
Ga      0.250000   0.500000   0.500000
As      0.312500   0.562500   0.562500
Ga      0.250000   0.500000   0.750000
As      0.312500   0.562500   0.812500
Ga      0.250000   0.750000   0.000000
As      0.312500   0.812500   0.062500
Ga      0.250000   0.750000   0.250000
As      0.312500   0.812500   0.312500
Ga      0.250000   0.750000   0.500000
As      0.312500   0.812500   0.562500
Ga      0.250000   0.750000   0.750000
As      0.312500   0.812500   0.812500
Ga      0.500000   0.000000   0.000000
As      0.562500   0.062500   0.062500
Ga      0.500000   0.000000   0.250000
As      0.562500   0.062500   0.312500
Ga      0.500000   0.000000   0.500000
As      0.562500   0.062500   0.562500
Ga      0.500000   0.000000   0.750000
As      0.562500   0.062500   0.812500
Ga      0.500000   0.250000   0.000000
As      0.562500   0.312500   0.062500
Ga      0.500000   0.250000   0.250000
As      0.562500   0.312500   0.312500
Ga      0.500000   0.250000   0.500000
As      0.562500   0.312500   0.562500
Ga      0.500000   0.250000   0.750000
As      0.562500   0.312500   0.812500
Ga      0.500000   0.500000   0.000000
As      0.562500   0.562500   0.062500
Ga      0.500000   0.500000   0.250000
As      0.562500   0.562500   0.312500
Ga      0.500000   0.500000   0.500000
As      0.562500   0.562500   0.562500
Ga      0.500000   0.500000   0.750000
As      0.562500   0.562500   0.812500
Ga      0.500000   0.750000   0.000000
As      0.562500   0.812500   0.062500
Ga      0.500000   0.750000   0.250000
As      0.562500   0.812500   0.312500
Ga      0.500000   0.750000   0.500000
As      0.562500   0.812500   0.562500
Ga      0.500000   0.750000   0.750000
As      0.562500   0.812500   0.812500
Ga      0.750000   0.000000   0.000000
As      0.812500   0.062500   0.062500
Ga      0.750000  -0.000000   0.250000
As      0.812500   0.062500   0.312500
Ga      0.750000   0.000000   0.500000
As      0.812500   0.062500   0.562500
Ga      0.750000   0.000000   0.750000
As      0.812500   0.062500   0.812500
Ga      0.750000   0.250000   0.000000
As      0.812500   0.312500   0.062500
Ga      0.750000   0.250000   0.250000
As      0.812500   0.312500   0.312500
Ga      0.750000   0.250000   0.500000
As      0.812500   0.312500   0.562500
Ga      0.750000   0.250000   0.750000
As      0.812500   0.312500   0.812500
Ga      0.750000   0.500000   0.000000
As      0.812500   0.562500   0.062500
Ga      0.750000   0.500000   0.250000
As      0.812500   0.562500   0.312500
Ga      0.750000   0.500000   0.500000
As      0.812500   0.562500   0.562500
Ga      0.750000   0.500000   0.750000
As      0.812500   0.562500   0.812500
Ga      0.750000   0.750000   0.000000
As      0.812500   0.812500   0.062500
Ga      0.750000   0.750000   0.250000
As      0.812500   0.812500   0.312500
Ga      0.750000   0.750000   0.500000
As      0.812500   0.812500   0.562500
Ga      0.750000   0.750000   0.750000
As      0.812500   0.812500   0.812500


K_POINTS crystal
