&CONTROL
  calculation = 'scf'
  prefix = 'GaBiAs'
    pseudo_dir = 'input',
    restart_mode = 'from_scratch',
    disk_io = 'low'
    wf_collect = .TRUE.
/

&SYSTEM
  degauss = 0.002
  ecutrho = 720
  ecutwfc = 80
  ibrav = 0
  lspinorb = .TRUE.
  nat = 128
  noncolin = .TRUE.
  ntyp = 3
  occupations = 'smearing'
  smearing = 'gaussian'
  starting_magnetization(1) = 0.0000e+00
  nosym = .true.
/

&ELECTRONS
  conv_thr = 1e-08
  electron_maxstep = 80
  mixing_beta = 0.3
/

ATOMIC_SPECIES
  As 74.9216 As.rel-pz-n-rrkjus_psl.0.2.UPF
  Ga 69.72 Ga.rel-pz-dn-rrkjus_psl.0.2.UPF
  Bi 208.9804 Bi.rel-pz-dn-rrkjus_psl.1.0.0.UPF

K_POINTS {automatic}
 2  2  2  0 0 0

CELL_PARAMETERS (alat= 42.40545118)
  -0.502912529  -0.000003749   0.502921479
   0.000003753   0.502912533   0.502921483
  -0.502964791   0.502964791  -0.000056010

ATOMIC_POSITIONS (crystal)
Ga            0.0002728489        0.0002728471       -0.0004591498
As            0.0623545433        0.0623545386        0.0625222392
Ga           -0.0000565494       -0.0000565487        0.2497887016
As            0.0622303825        0.0622303785        0.3127501187
Ga           -0.0000475063       -0.0000475065        0.5003289000
As            0.0625520983        0.0625520988        0.5625855786
Ga            0.0002878109        0.0002878060        0.7498737098
As            0.0627783676        0.0627783684        0.8122522714
Ga            0.0001084334        0.2484730564       -0.0000702802
As            0.0597589796        0.3125247110        0.0623876651
Ga            0.0001766187        0.2495325082        0.2500338724
As            0.0596490918        0.3124738571        0.3153232980
Ga           -0.0014255768        0.2499752053        0.5014790017
As            0.0624780840        0.3123601276        0.5626695009
Ga            0.0000303260        0.2503463908        0.7499007935
As            0.0626245449        0.3123490760        0.8125185012
Ga            0.0016539984        0.5002051958       -0.0010668440
As            0.0619941189        0.5624805012        0.0629580525
Ga            0.0001514416        0.5001454685        0.2507380605
As            0.0623942946        0.5624590535        0.3131319386
Ga           -0.0002629646        0.4997348419        0.5005463149
As            0.0623011278        0.5626698811        0.5623286434
Ga            0.0012411188        0.4997370340        0.7484770515
As            0.0626504960        0.5623310872        0.8119562516
Ga            0.0123498575        0.7470937184       -0.0047244696
As            0.0652200164        0.8127946309        0.0624319828
Ga            0.0003220858        0.7497307542        0.2500871978
As            0.0624783438        0.8125237775        0.3126101141
Ga            0.0000317885        0.7500146190        0.4999753003
As            0.0625687360        0.8124381391        0.5624414377
Ga            0.0005299183        0.7495196096        0.7498532527
As            0.0652704467        0.8127281788        0.8095324394
Ga            0.2484730632        0.0001084371       -0.0000702838
As            0.3125247120        0.0597589778        0.0623876710
Ga            0.2495325051        0.0001766189        0.2500338776
As            0.3124738549        0.0596490990        0.3153232881
Ga            0.2499752033       -0.0014255715        0.5014789968
As            0.3123601283        0.0624780861        0.5626695049
Ga            0.2503463915        0.0000303224        0.7499007955
As            0.3123490880        0.0626245400        0.8125184996
Ga            0.2454195997        0.2454195905       -0.0044850185
Bi            0.3124013942        0.3124013952        0.0624961294
Ga            0.2454070208        0.2454070304        0.2634754076
As            0.3122990803        0.3122990796        0.3155186558
Ga            0.2499605383        0.2499605409        0.5017537644
As            0.3126873398        0.3126873390        0.5624789253
Ga            0.2499532633        0.2499532626        0.7485263068
As            0.3125651862        0.3125651772        0.8096475108
Ga            0.2455754616        0.5124791891       -0.0048349393
As            0.3099492526        0.5653564313        0.0625227754
Ga            0.2496377858        0.4997449384        0.2504431639
As            0.3095701405        0.5626351164        0.3152958891
Ga            0.2485367663        0.5000263302        0.5014644427
As            0.3124780828        0.5624072300        0.5625756835
Ga            0.2497217507        0.5003416482        0.7498214424
As            0.3127670185        0.5651275368        0.8094578477
Ga            0.2514825568        0.7517066504       -0.0006196729
As            0.3094675147        0.8151978121        0.0630630465
Ga            0.2498722476        0.7502421666        0.2504333303
As            0.3120916264        0.8126586135        0.3129092367
Ga            0.2499468995        0.7497393351        0.5002559608
As            0.3125087906        0.8124620473        0.5621283573
Ga            0.2514467335        0.7512600242        0.7470787122
As            0.3122272866        0.8127809780        0.8122174997
Ga            0.5002051892        0.0016540046       -0.0010668413
As            0.5624804941        0.0619941248        0.0629580576
Ga            0.5001454630        0.0001514434        0.2507380675
As            0.5624590543        0.0623942912        0.3131319464
Ga            0.4997348384       -0.0002629648        0.5005463208
As            0.5626698861        0.0623011246        0.5623286441
Ga            0.4997370358        0.0012411141        0.7484770526
As            0.5623310965        0.0626504864        0.8119562498
Ga            0.5124791873        0.2455754661       -0.0048349467
As            0.5653564388        0.3099492446        0.0625227804
Ga            0.4997449334        0.2496377821        0.2504431729
As            0.5626351208        0.3095701381        0.3152958875
Ga            0.5000263289        0.2485367661        0.5014644470
As            0.5624072346        0.3124780808        0.5625756872
Ga            0.5003416492        0.2497217433        0.7498214474
As            0.5651275465        0.3127670140        0.8094578414
Ga            0.4956672505        0.4956672396       -0.0049510361
Bi            0.5626751129        0.5626751080        0.0622266543
Ga            0.4954048298        0.4954048359        0.2634132730
As            0.5622947149        0.5622947001        0.3155494307
Ga            0.4999395404        0.4999395495        0.5018139626
As            0.5627422610        0.5627422609        0.5623860107
Ga            0.5002948313        0.5002948334        0.7483986683
As            0.5628345573        0.5628345462        0.8093988839
Ga            0.4938723369        0.7638876128       -0.0046794478
As            0.5598006018        0.8152064293        0.0626033219
Ga            0.4993473037        0.7498440720        0.2506094519
As            0.5596057596        0.8125155336        0.3154143442
Ga            0.4985682820        0.7499887106        0.5014798743
As            0.5624349203        0.8123926623        0.5625898786
Ga            0.4992354930        0.7506641753        0.7498462973
As            0.5625295574        0.8151022017        0.8096117323
Ga            0.7470937018        0.0123498762       -0.0047244671
As            0.8127946363        0.0652200200        0.0624319748
Ga            0.7497307449        0.0003220906        0.2500871976
As            0.8125237797        0.0624783395        0.3126101212
Ga            0.7500146163        0.0000317902        0.4999753039
As            0.8124381392        0.0625687367        0.5624414362
Ga            0.7495196087        0.0005299204        0.7498532534
As            0.8127281860        0.0652704432        0.8095324352
Ga            0.7517066491        0.2514825577       -0.0006196762
As            0.8151978125        0.3094675137        0.0630630461
Ga            0.7502421633        0.2498722443        0.2504333313
As            0.8126586148        0.3120916246        0.3129092364
Ga            0.7497393304        0.2499469017        0.5002559623
As            0.8124620473        0.3125087930        0.5621283539
Ga            0.7512600192        0.2514467338        0.7470787118
As            0.8127809857        0.3122272811        0.8122174928
Ga            0.7638876168        0.4938723417       -0.0046794562
As            0.8152064245        0.5598006096        0.0626033244
Ga            0.7498440694        0.4993473087        0.2506094496
As            0.8125155375        0.5596057627        0.3154143331
Ga            0.7499887052        0.4985682919        0.5014798673
As            0.8123926689        0.5624349152        0.5625898786
Ga            0.7506641731        0.4992354954        0.7498462977
As            0.8151022122        0.5625295523        0.8096117275
Ga            0.7456167277        0.7456167449       -0.0050236370
Bi            0.8123048598        0.8123048782        0.0627063977
Ga            0.7453930738        0.7453930944        0.2637186555
As            0.8125635970        0.8125635850        0.3152416134
Ga            0.7499571517        0.7499571566        0.5015403209
As            0.8127376172        0.8127376151        0.5622341948
Ga            0.7503006902        0.7503006902        0.7484516074
As            0.8128293848        0.8128293829        0.8094263438
