&CONTROL
  calculation = 'vc-relax'
  prefix = 'GaAs'
  outdir      = './',
  pseudo_dir  = '../../pseudopotential/',
  disk_io = 'none'
/

&SYSTEM
  degauss = 0.002
  ecutrho = 400
  ecutwfc = 50
  ibrav = 2
  celldm(1) = 10.877158442418427
  lspinorb = .TRUE.
  nat = 2
  noncolin = .TRUE.
  ntyp = 2
  occupations = 'smearing'
  smearing = 'gaussian'
  starting_magnetization(1) = 0.0000e+00
  nosym = .true.
/

&ELECTRONS
  conv_thr = 1e-08
  electron_maxstep = 80
  mixing_beta = 0.3
/
&ions
	ion_dynamics = 'bfgs'
/

&cell
    cell_dofree='all'
    cell_dynamics = 'bfgs'
/

ATOMIC_SPECIES
  As 74.9216 As.rel-pbe-n-rrkjus_psl.0.2.UPF
  Ga 69.72 Ga.rel-pbe-dn-rrkjus_psl.0.2.UPF

K_POINTS {automatic}
  8 8 8 0 0 0


ATOMIC_POSITIONS (crystal)
 Ga 0.0   0.0   0.0
 As 0.25  0.25  0.25
